
Gurobi 11.0.1 (win64) logging started Sun Mar 31 03:13:21 2024

Set parameter LogFile to value "C:\Projetos\Job_Rotation_Algorithms\Outputs\GurobiLogs\gurobi_log-output-13_hes-c118-BorbaRittModel-NoExtraConstraint-2.log"
Gurobi Optimizer version 11.0.1 build v11.0.1rc0 (win64 - Windows 10.0 (19045.2))

CPU model: 11th Gen Intel(R) Core(TM) i7-1165G7 @ 2.80GHz, instruction set [SSE2|AVX|AVX2|AVX512]
Thread count: 4 physical cores, 8 logical processors, using up to 1 threads

WLS license 901039 - registered to Bitka Analytics
Optimize a model with 1017 rows, 326 columns and 3254 nonzeros
Model fingerprint: 0xe05d713e
Variable types: 2 continuous, 324 integer (324 binary)
Coefficient statistics:
  Matrix range     [1e+00, 1e+02]
  Objective range  [1e+00, 1e+00]
  Bounds range     [1e+00, 2e+02]
  RHS range        [1e+00, 2e+02]
Presolve removed 3 rows and 3 columns
Presolve time: 0.02s
Presolved: 1014 rows, 323 columns, 3248 nonzeros
Variable types: 0 continuous, 323 integer (322 binary)

Root relaxation: objective 5.517640e+01, 574 iterations, 0.02 seconds (0.02 work units)

    Nodes    |    Current Node    |     Objective Bounds      |     Work
 Expl Unexpl |  Obj  Depth IntInf | Incumbent    BestBd   Gap | It/Node Time

     0     0   55.17640    0   99          -   55.17640      -     -    0s
     0     0   55.15173    0  128          -   55.15173      -     -    0s
     0     0   55.13414    0  143          -   55.13414      -     -    0s
     0     0   55.12655    0  129          -   55.12655      -     -    0s
     0     0   55.12655    0  127          -   55.12655      -     -    0s
     0     0   55.12428    0  134          -   55.12428      -     -    0s
     0     0   55.12414    0  145          -   55.12414      -     -    0s
     0     0   55.12414    0  139          -   55.12414      -     -    0s
     0     0   55.12414    0  132          -   55.12414      -     -    0s
     0     0   55.12413    0  136          -   55.12413      -     -    0s
     0     0   55.12413    0  120          -   55.12413      -     -    0s
     0     0   55.12404    0  119          -   55.12404      -     -    0s
     0     0   55.12404    0  126          -   55.12404      -     -    0s
     0     0   55.12404    0  126          -   55.12404      -     -    0s
H    0     0                      38.0000000   55.12404  45.1%     -    0s
H    0     0                      39.0000000   55.12404  41.3%     -    0s
     0     2   55.12404    0  126   39.00000   55.12404  41.3%     -    0s
H   27    15                      41.0000000   55.08427  34.4%  67.3    0s
H   98    41                      48.0000000   55.08107  14.8%  45.3    0s
H  602   149                      49.0000000   54.08021  10.4%  36.7    1s
*  731   126              24      50.0000000   53.75658  7.51%  37.1    1s

Cutting planes:
  Gomory: 7
  Cover: 39
  MIR: 8
  Inf proof: 15
  Zero half: 12
  RLT: 34

Explored 1069 nodes (37864 simplex iterations) in 1.92 seconds (1.80 work units)
Thread count was 1 (of 8 available processors)

Solution count 6: 50 49 48 ... 38

Optimal solution found (tolerance 1.00e-03)
Best objective 5.000000000000e+01, best bound 5.000000000000e+01, gap 0.0000%
